(set-logic ALL)
(declare-fun var0 () String)
(assert (str.in_re var0 (re.++ (re.union (re.* (str.to_re "00")) (re.* (str.to_re "11"))) (re.++ (re.union (re.* (str.to_re "22")) (re.* (str.to_re "33"))) (re.++ (re.+ (re.+ (str.to_re "4"))) (re.++ (re.+ (re.+ (str.to_re "555"))) (re.++ (re.* (re.* (str.to_re "6"))) (re.++ (re.union (re.* (str.to_re "77")) (re.* (str.to_re "888"))) (re.++ (re.union (re.+ (str.to_re "999")) (re.+ (str.to_re "aa"))) (re.++ (re.* (re.+ (str.to_re "bb"))) (re.++ (re.union (re.union (str.to_re "c") (str.to_re "dd")) (re.union (str.to_re "e") (str.to_re "ff"))) (re.++ (re.union (re.+ (str.to_re "gg")) (re.+ (str.to_re "hhh"))) (re.++ (re.+ (re.union (str.to_re "iii") (str.to_re "j"))) (re.++ (re.* (re.union (str.to_re "k") (str.to_re "lll"))) (re.++ (re.+ (re.union (str.to_re "mmm") (str.to_re "nn"))) (re.++ (re.union (re.union (str.to_re "o") (str.to_re "pp")) (re.union (str.to_re "qqq") (str.to_re "r"))) (re.++ (re.+ (re.+ (str.to_re "s"))) (re.++ (re.union (re.+ (str.to_re "ttt")) (re.+ (str.to_re "uuu"))) (re.++ (re.union (re.union (str.to_re "vvv") (str.to_re "www")) (re.union (str.to_re "x") (str.to_re "yy"))) (re.++ (re.+ (re.+ (str.to_re "zz"))) (re.++ (re.+ (re.+ (str.to_re "AAA"))) (re.++ (re.union (re.+ (str.to_re "BB")) (re.+ (str.to_re "CCC"))) (re.++ (re.+ (re.union (str.to_re "D") (str.to_re "E"))) (re.++ (re.union (re.union (str.to_re "FFF") (str.to_re "GG")) (re.union (str.to_re "HHH") (str.to_re "I"))) (re.++ (re.+ (re.* (str.to_re "J"))) (re.++ (re.+ (re.* (str.to_re "KKK"))) (re.++ (re.* (re.union (str.to_re "L") (str.to_re "MMM"))) (re.++ (re.union (re.union (str.to_re "NNN") (str.to_re "OOO")) (re.union (str.to_re "PPP") (str.to_re "QQQ"))) (re.++ (re.* (re.+ (str.to_re "R"))) (re.++ (re.union (re.+ (str.to_re "S")) (re.+ (str.to_re "TT"))) (re.++ (re.+ (re.+ (str.to_re "U"))) (re.++ (re.union (re.* (str.to_re "VV")) (re.* (str.to_re "WW"))) (re.++ (re.* (re.union (str.to_re "XX") (str.to_re "Y"))) (re.++ (re.+ (re.union (str.to_re "ZZZ") (str.to_re "!!!"))) (re.++ (re.* (re.* (str.to_re """"""))) (re.++ (re.union (re.+ (str.to_re "###")) (re.+ (str.to_re "$$"))) (re.++ (re.+ (re.union (str.to_re "%") (str.to_re "&"))) (re.++ (re.* (re.union (str.to_re "''") (str.to_re "((("))) (re.++ (re.+ (re.union (str.to_re ")))") (str.to_re "*"))) (re.++ (re.* (re.+ (str.to_re "++"))) (re.++ (re.* (re.* (str.to_re ","))) (re.++ (re.* (re.* (str.to_re "-"))) (re.++ (re.union (re.union (str.to_re ".") (str.to_re "///")) (re.union (str.to_re ":::") (str.to_re ";;;"))) (re.++ (re.* (re.* (str.to_re "<"))) (re.union (re.+ (str.to_re "=")) (re.+ (str.to_re ">>")))))))))))))))))))))))))))))))))))))))))))))))
(check-sat)